*HEADING
single-element verification deck for neoHookean
** Generated by umat_oti.abaqus.deck from a verification manifest.
** kinematics: finite; ntens: 6
** material provenance: Jeff97__Programming-Plane-Strain-Plates-through-Growth-Under-Body-Forces/Examples-In-Section-3/ParabolicDown/Th001/Beam-PureGrowth.inp: Beam-PureGrowth.inp *MATERIAL neoHookean: 1 constants, *DEPVAR 9 -- a section in Beam-PureGrowth.inp attaches neoHookean to C3D20H; the deck sits in the source's own directory
** geometry: element 1669 (C3D20H) of Beam-PureGrowth.inp, reduced to its corner nodes: this routine caches its point's position (READX=COORDS(1), READY=COORDS(2), READZ=COORDS(3), STATEV(1)=COORDS(1), STATEV(2)=COORDS(2), STATEV(3)=COORDS(3), X=COORDS(1), Y=COORDS(2), Z=COORDS(3)) and builds no divisor out of it that this module can evaluate, so one element of the author's own mesh is used and its coordinates are the author's
*NODE
1, 0.0, 0.00499999989, 0.0
2, 0.00179856119, 0.00499999989, 0.0
3, 0.00179856119, 0.00666666683, 0.0
4, 0.0, 0.00666666683, 0.0
5, 0.0, 0.00499999989, 0.00100000005
6, 0.00179856119, 0.00499999989, 0.00100000005
7, 0.00179856119, 0.00666666683, 0.00100000005
8, 0.0, 0.00666666683, 0.00100000005
*ELEMENT, TYPE=C3D8H, ELSET=ONE
1, 1, 2, 3, 4, 5, 6, 7, 8
*SOLID SECTION, ELSET=ONE, MATERIAL=NEOHOOKEAN
*MATERIAL, NAME=NEOHOOKEAN
*DEPVAR
9,
*USER MATERIAL, CONSTANTS=1
10000000.0
** body_force: the author's own body force, applied through the source's SUBROUTINE DLOAD over a step of 1; the element is held only where rigid-body motion requires (Beam-PureGrowth.inp: *DLOAD BXNU 0; BYNU 1)
*STEP, NLGEOM=YES, INC=200
*STATIC
0.05, 1.0, 5.000000000000001e-07, 0.05
*BOUNDARY, OP=NEW
1, 3, 3, 0.0
2, 3, 3, 0.0
3, 3, 3, 0.0
4, 3, 3, 0.0
5, 3, 3, 0.0
6, 3, 3, 0.0
7, 3, 3, 0.0
8, 3, 3, 0.0
1, 1, 1, 0.0
1, 2, 2, 0.0
2, 2, 2, 0.0
*DLOAD, OP=NEW
ONE, BXNU, 0.0
ONE, BYNU, 1.0
*OUTPUT, FIELD, FREQUENCY=1
*ELEMENT OUTPUT, POSITION=INTEGRATION POINTS
S, SDV
*EL PRINT, POSITION=INTEGRATION POINTS, FREQ=1
S,
SDV,
*END STEP
