*HEADING
single-element verification deck for MATERIAL-1
** Generated by umat_oti.abaqus.deck from a verification manifest.
** kinematics: finite; ntens: 6
** material provenance: Job-1-copy.inp *MATERIAL MATERIAL-1: 168 constants, *DEPVAR 150, UNSYMM (paired deck RitioL__PolyFatigueCrackSim/CPFEM-val/workplace/Job-1-copy.inp)
*NODE
1, 0.0, 0.0, 0.0
2, 1.0, 0.0, 0.0
3, 0.0, 1.0, 0.0
4, 0.0, 0.0, 1.0
*ELEMENT, TYPE=C3D4, ELSET=ONE
1, 1, 2, 3, 4
*SOLID SECTION, ELSET=ONE, MATERIAL=MATERIAL-1
*MATERIAL, NAME=MATERIAL-1
*DEPVAR
150,
*USER MATERIAL, CONSTANTS=168, UNSYMM
266538.0, 114000.0, 76000.0, 0.0, 0.0, 0.0, 0.0, 0.0
0.0, 0.0, 0.0, 0.0, 0.0, 0.0, 0.0, 0.0
0.0, 0.0, 0.0, 0.0, 0.0, 0.0, 0.0, 0.0
1.0, 0.0, 0.0, 0.0, 0.0, 0.0, 0.0, 0.0
1.0, 1.0, 1.0, 1.0, 1.0, 0.0, 0.0, 0.0
0.0, 0.0, 0.0, 0.0, 0.0, 0.0, 0.0, 0.0
0.0, 0.0, 0.0, 0.0, 0.0, 0.0, 0.0, 0.0
0.0, 0.0, 1.0, -0.122788, 0.122788, 0.984808, 0.0, 0.0
1.0, 0.0, 0.0, 0.562997, -0.808573, 0.17101, 0.0, 0.0
12.0, 0.01, 0.0, 0.0, 0.0, 0.0, 0.0, 0.0
0.0, 0.0, 0.0, 0.0, 0.0, 0.0, 0.0, 0.0
0.0, 0.0, 0.0, 0.0, 0.0, 0.0, 0.0, 0.0
200.0, 650.0, 285.0, 0.0, 0.0, 0.0, 0.0, 0.0
1.0, 1.0, 0.0, 0.0, 0.0, 0.0, 0.0, 0.0
0.0, 0.0, 0.0, 0.0, 0.0, 0.0, 0.0, 0.0
0.0, 0.0, 0.0, 0.0, 0.0, 0.0, 0.0, 0.0
0.0, 0.0, 0.0, 0.0, 0.0, 0.0, 0.0, 0.0
0.0, 0.0, 0.0, 0.0, 0.0, 0.0, 0.0, 0.0
0.5, 1.0, 0.0, 0.0, 0.0, 0.0, 0.0, 0.0
1.0, 20.0, 1e-05, 0.26, 0.265, 0.8, 3.0, 0.0
225.0, 10.0, 80.0, 25712.0, 0.0, 0.0, 0.0, 0.0
** uniaxial: prescribed extension along x, lateral faces free to move only in their own plane
*STEP, NLGEOM=YES, INC=100
*STATIC
0.1, 1.0, 1.0000000000000002e-06, 0.1
*BOUNDARY, OP=NEW
1, 1, 1, 0.0
1, 2, 2, 0.0
1, 3, 3, 0.0
2, 1, 1, 0.005
2, 2, 2, 0.0
2, 3, 3, 0.0
3, 1, 1, 0.0
3, 2, 2, 0.0
3, 3, 3, 0.0
4, 1, 1, 0.0
4, 2, 2, 0.0
4, 3, 3, 0.0
*OUTPUT, FIELD, FREQUENCY=1
*ELEMENT OUTPUT, POSITION=INTEGRATION POINTS
S, SDV
*EL PRINT, POSITION=INTEGRATION POINTS, FREQ=1
S,
SDV,
*END STEP
** simple_shear: prescribed engineering shear in the x-y plane
*STEP, NLGEOM=YES, INC=100
*STATIC
0.1, 1.0, 1.0000000000000002e-06, 0.1
*BOUNDARY, OP=NEW
1, 1, 1, 0.0
1, 2, 2, 0.0
1, 3, 3, 0.0
2, 1, 1, 0.0
2, 2, 2, 0.0025
2, 3, 3, 0.0
3, 1, 1, 0.0025
3, 2, 2, 0.0
3, 3, 3, 0.0
4, 1, 1, 0.0
4, 2, 2, 0.0
4, 3, 3, 0.0
*OUTPUT, FIELD, FREQUENCY=1
*ELEMENT OUTPUT, POSITION=INTEGRATION POINTS
S, SDV
*EL PRINT, POSITION=INTEGRATION POINTS, FREQ=1
S,
SDV,
*END STEP
** uniaxial_reversed: reversal of uniaxial to exercise state evolution
*STEP, NLGEOM=YES, INC=100
*STATIC
0.1, 1.0, 1.0000000000000002e-06, 0.1
*BOUNDARY, OP=NEW
1, 1, 1, -0.0
1, 2, 2, -0.0
1, 3, 3, -0.0
2, 1, 1, -0.0025
2, 2, 2, -0.0
2, 3, 3, -0.0
3, 1, 1, -0.0
3, 2, 2, -0.0
3, 3, 3, -0.0
4, 1, 1, -0.0
4, 2, 2, -0.0
4, 3, 3, -0.0
*OUTPUT, FIELD, FREQUENCY=1
*ELEMENT OUTPUT, POSITION=INTEGRATION POINTS
S, SDV
*EL PRINT, POSITION=INTEGRATION POINTS, FREQ=1
S,
SDV,
*END STEP
