*HEADING
single-element verification deck for tissue
** Generated by umat_oti.abaqus.deck from a verification manifest.
** kinematics: finite; ntens: 6
** material provenance: abuganza__BayesianCalibrationSkinGrowth/Iso_Example.inp: Iso_Example.inp *MATERIAL tissue: 9 constants, *DEPVAR 6 -- a section in Iso_Example.inp attaches tissue to C3D8, F3D4, S4R; the deck's name 'Iso_Example.inp' contains the whole of the source's stem 'iso_example'; the deck sits in the source's own directory -- read through the deck's own *PARAMETER block, which defines lam, mu, xn0_1, xn0_2, xn0_3, kk, tcrt, mm, nn
** geometry: the reference element of this harness, a unit cell at the origin
*NODE
1, 0.0, 0.0, 0.0
2, 1.0, 0.0, 0.0
3, 1.0, 1.0, 0.0
4, 0.0, 1.0, 0.0
5, 0.0, 0.0, 1.0
6, 1.0, 0.0, 1.0
7, 1.0, 1.0, 1.0
8, 0.0, 1.0, 1.0
*ELEMENT, TYPE=C3D8, ELSET=ONE
1, 1, 2, 3, 4, 5, 6, 7, 8
*SOLID SECTION, ELSET=ONE, MATERIAL=TISSUE
*MATERIAL, NAME=TISSUE
*DEPVAR
6,
*USER MATERIAL, CONSTANTS=9, UNSYMM
0.598, 0.814, 0.0, 0.0, 1.0, 0.432, 1.1567, 1.0
1.0
*INITIAL CONDITIONS, TYPE=SOLUTION, USER
** uniaxial: prescribed extension along x, lateral faces free to move only in their own plane
*STEP, NLGEOM=YES, INC=100
*STATIC
0.1, 1.0, 1.0000000000000002e-06, 0.1
*BOUNDARY, OP=NEW
1, 1, 1, 0.0
1, 2, 2, 0.0
1, 3, 3, 0.0
2, 1, 1, 0.010000000000000002
2, 2, 2, 0.0
2, 3, 3, 0.0
3, 1, 1, 0.010000000000000002
3, 2, 2, 0.0
3, 3, 3, 0.0
4, 1, 1, 0.0
4, 2, 2, 0.0
4, 3, 3, 0.0
5, 1, 1, 0.0
5, 2, 2, 0.0
5, 3, 3, 0.0
6, 1, 1, 0.010000000000000002
6, 2, 2, 0.0
6, 3, 3, 0.0
7, 1, 1, 0.010000000000000002
7, 2, 2, 0.0
7, 3, 3, 0.0
8, 1, 1, 0.0
8, 2, 2, 0.0
8, 3, 3, 0.0
*OUTPUT, FIELD, FREQUENCY=1
*ELEMENT OUTPUT, POSITION=INTEGRATION POINTS
S, SDV
*EL PRINT, POSITION=INTEGRATION POINTS, FREQ=1
S,
SDV,
*END STEP
** simple_shear: prescribed engineering shear in the x-y plane
*STEP, NLGEOM=YES, INC=100
*STATIC
0.1, 1.0, 1.0000000000000002e-06, 0.1
*BOUNDARY, OP=NEW
1, 1, 1, 0.0
1, 2, 2, 0.0
1, 3, 3, 0.0
2, 1, 1, 0.0
2, 2, 2, 0.005000000000000001
2, 3, 3, 0.0
3, 1, 1, 0.005000000000000001
3, 2, 2, 0.005000000000000001
3, 3, 3, 0.0
4, 1, 1, 0.005000000000000001
4, 2, 2, 0.0
4, 3, 3, 0.0
5, 1, 1, 0.0
5, 2, 2, 0.0
5, 3, 3, 0.0
6, 1, 1, 0.0
6, 2, 2, 0.005000000000000001
6, 3, 3, 0.0
7, 1, 1, 0.005000000000000001
7, 2, 2, 0.005000000000000001
7, 3, 3, 0.0
8, 1, 1, 0.005000000000000001
8, 2, 2, 0.0
8, 3, 3, 0.0
*OUTPUT, FIELD, FREQUENCY=1
*ELEMENT OUTPUT, POSITION=INTEGRATION POINTS
S, SDV
*EL PRINT, POSITION=INTEGRATION POINTS, FREQ=1
S,
SDV,
*END STEP
** uniaxial_reversed: reversal of uniaxial to exercise state evolution
*STEP, NLGEOM=YES, INC=100
*STATIC
0.1, 1.0, 1.0000000000000002e-06, 0.1
*BOUNDARY, OP=NEW
1, 1, 1, -0.0
1, 2, 2, -0.0
1, 3, 3, -0.0
2, 1, 1, -0.005000000000000001
2, 2, 2, -0.0
2, 3, 3, -0.0
3, 1, 1, -0.005000000000000001
3, 2, 2, -0.0
3, 3, 3, -0.0
4, 1, 1, -0.0
4, 2, 2, -0.0
4, 3, 3, -0.0
5, 1, 1, -0.0
5, 2, 2, -0.0
5, 3, 3, -0.0
6, 1, 1, -0.005000000000000001
6, 2, 2, -0.0
6, 3, 3, -0.0
7, 1, 1, -0.005000000000000001
7, 2, 2, -0.0
7, 3, 3, -0.0
8, 1, 1, -0.0
8, 2, 2, -0.0
8, 3, 3, -0.0
*OUTPUT, FIELD, FREQUENCY=1
*ELEMENT OUTPUT, POSITION=INTEGRATION POINTS
S, SDV
*EL PRINT, POSITION=INTEGRATION POINTS, FREQ=1
S,
SDV,
*END STEP
** uniaxial_hold: the strain of uniaxial held for 10 of step time, so that stress change means time dependence
*STEP, NLGEOM=YES, INC=100
*STATIC
2.0, 10.0, 2e-05, 2.0
*BOUNDARY, OP=NEW
1, 1, 1, 0.0
1, 2, 2, 0.0
1, 3, 3, 0.0
2, 1, 1, 0.010000000000000002
2, 2, 2, 0.0
2, 3, 3, 0.0
3, 1, 1, 0.010000000000000002
3, 2, 2, 0.0
3, 3, 3, 0.0
4, 1, 1, 0.0
4, 2, 2, 0.0
4, 3, 3, 0.0
5, 1, 1, 0.0
5, 2, 2, 0.0
5, 3, 3, 0.0
6, 1, 1, 0.010000000000000002
6, 2, 2, 0.0
6, 3, 3, 0.0
7, 1, 1, 0.010000000000000002
7, 2, 2, 0.0
7, 3, 3, 0.0
8, 1, 1, 0.0
8, 2, 2, 0.0
8, 3, 3, 0.0
*OUTPUT, FIELD, FREQUENCY=1
*ELEMENT OUTPUT, POSITION=INTEGRATION POINTS
S, SDV
*EL PRINT, POSITION=INTEGRATION POINTS, FREQ=1
S,
SDV,
*END STEP
