*HEADING
single-element verification deck for neoHookean
** Generated by umat_oti.abaqus.deck from a verification manifest.
** kinematics: finite; ntens: 6
** material provenance: Jeff97__Programming-Plane-Strain-Plates-through-Growth-Under-Body-Forces/Examples-In-Section-3/ParabolicDown/Th005/Beam-Gravity-Growth-C0-1MPa.inp: Beam-Gravity-Growth-C0-1MPa.inp *MATERIAL neoHookean: 1 constants, *DEPVAR 9 -- a section in Beam-Gravity-Growth-C0-1MPa.inp attaches neoHookean to C3D20H; the two names share growth; the routine branches on 3 total-time boundaries and this deck runs 2 steps; the deck sits in the source's own directory; the constants this routine hard-codes account for this mesh: axis 1 spans 1 = DETF; axis 2 spans 0.05 = 2*H
** geometry: element 1501 (C3D20H) of Beam-Gravity-Growth-C0-1MPa.inp, reduced to its corner nodes: this routine caches its point's position (READX=COORDS(1), READY=COORDS(2), READZ=COORDS(3), STATEV(1)=COORDS(1), STATEV(2)=COORDS(2), STATEV(3)=COORDS(3), X=COORDS(1), Y=COORDS(2), Z=COORDS(3)) and builds no divisor out of it that this module can evaluate, so one element of the author's own mesh is used and its coordinates are the author's; not evaluated: (8.*H*L*(1+X**2))
*NODE
1, 0.0, 0.0250000004, 0.0
2, 0.00400000019, 0.0250000004, 0.0
3, 0.00400000019, 0.0291666668, 0.0
4, 0.0, 0.0291666668, 0.0
5, 0.0, 0.0250000004, 0.00100000005
6, 0.00400000019, 0.0250000004, 0.00100000005
7, 0.00400000019, 0.0291666668, 0.00100000005
8, 0.0, 0.0291666668, 0.00100000005
*ELEMENT, TYPE=C3D8H, ELSET=ONE
1, 1, 2, 3, 4, 5, 6, 7, 8
*SOLID SECTION, ELSET=ONE, MATERIAL=NEOHOOKEAN
*MATERIAL, NAME=NEOHOOKEAN
*DEPVAR
9,
*USER MATERIAL, CONSTANTS=1
1000000.0
** stage1: no strain is prescribed and no load is applied; the step runs for 1 of analysis time so that whatever this law does with the clock is what the element does (this routine switches its own law at total times 1, 2, 3, so it is written for 3 steps of periods 1, 1, 1. An experiment that stops inside the first of them nev)
*STEP, NLGEOM=YES, INC=200
*STATIC
0.05, 1.0, 5.000000000000001e-07, 0.05
*BOUNDARY, OP=NEW
1, 3, 3, 0.0
2, 3, 3, 0.0
3, 3, 3, 0.0
4, 3, 3, 0.0
5, 3, 3, 0.0
6, 3, 3, 0.0
7, 3, 3, 0.0
8, 3, 3, 0.0
1, 1, 1, 0.0
1, 2, 2, 0.0
2, 2, 2, 0.0
*OUTPUT, FIELD, FREQUENCY=1
*ELEMENT OUTPUT, POSITION=INTEGRATION POINTS
S, SDV
*EL PRINT, POSITION=INTEGRATION POINTS, FREQ=1
S,
SDV,
*END STEP
** stage2: no strain is prescribed and no load is applied; the step runs for 1 of analysis time so that whatever this law does with the clock is what the element does (this routine switches its own law at total times 1, 2, 3, so it is written for 3 steps of periods 1, 1, 1. An experiment that stops inside the first of them nev)
*STEP, NLGEOM=YES, INC=200
*STATIC
0.05, 1.0, 5.000000000000001e-07, 0.05
*BOUNDARY, OP=NEW
1, 3, 3, 0.0
2, 3, 3, 0.0
3, 3, 3, 0.0
4, 3, 3, 0.0
5, 3, 3, 0.0
6, 3, 3, 0.0
7, 3, 3, 0.0
8, 3, 3, 0.0
1, 1, 1, 0.0
1, 2, 2, 0.0
2, 2, 2, 0.0
*OUTPUT, FIELD, FREQUENCY=1
*ELEMENT OUTPUT, POSITION=INTEGRATION POINTS
S, SDV
*EL PRINT, POSITION=INTEGRATION POINTS, FREQ=1
S,
SDV,
*END STEP
** stage3: no strain is prescribed and no load is applied; the step runs for 1 of analysis time so that whatever this law does with the clock is what the element does (this routine switches its own law at total times 1, 2, 3, so it is written for 3 steps of periods 1, 1, 1. An experiment that stops inside the first of them nev)
*STEP, NLGEOM=YES, INC=200
*STATIC
0.05, 1.0, 5.000000000000001e-07, 0.05
*BOUNDARY, OP=NEW
1, 3, 3, 0.0
2, 3, 3, 0.0
3, 3, 3, 0.0
4, 3, 3, 0.0
5, 3, 3, 0.0
6, 3, 3, 0.0
7, 3, 3, 0.0
8, 3, 3, 0.0
1, 1, 1, 0.0
1, 2, 2, 0.0
2, 2, 2, 0.0
*OUTPUT, FIELD, FREQUENCY=1
*ELEMENT OUTPUT, POSITION=INTEGRATION POINTS
S, SDV
*EL PRINT, POSITION=INTEGRATION POINTS, FREQ=1
S,
SDV,
*END STEP
