*HEADING
single-element verification deck for neoHookean
** Generated by umat_oti.abaqus.deck from a verification manifest.
** kinematics: finite; ntens: 6
** material provenance: Beam-Gravity-C0-100MPa.inp *MATERIAL neoHookean: 1 constants, *DEPVAR 9 (paired deck Jeff97__Programming-Plane-Strain-Plates-through-Growth-Under-Body-Forces/Examples-In-Section-3/ArcDown/Th001/Beam-Gravity-C0-100MPa.inp)
*NODE
1, 0.0, 0.0, 0.0
2, 1.0, 0.0, 0.0
3, 0.0, 1.0, 0.0
4, 0.0, 0.0, 1.0
*ELEMENT, TYPE=C3D4, ELSET=ONE
1, 1, 2, 3, 4
*SOLID SECTION, ELSET=ONE, MATERIAL=NEOHOOKEAN
*MATERIAL, NAME=NEOHOOKEAN
*DEPVAR
9,
*USER MATERIAL, CONSTANTS=1
100000000.0
** uniaxial: prescribed extension along x, lateral faces free to move only in their own plane
*STEP, NLGEOM=YES, INC=100
*STATIC
0.1, 1.0, 1.0000000000000002e-06, 0.1
*BOUNDARY, OP=NEW
1, 1, 1, 0.0
1, 2, 2, 0.0
1, 3, 3, 0.0
2, 1, 1, 0.005
2, 2, 2, 0.0
2, 3, 3, 0.0
3, 1, 1, 0.0
3, 2, 2, 0.0
3, 3, 3, 0.0
4, 1, 1, 0.0
4, 2, 2, 0.0
4, 3, 3, 0.0
*OUTPUT, FIELD, FREQUENCY=1
*ELEMENT OUTPUT, POSITION=INTEGRATION POINTS
S, SDV
*EL PRINT, POSITION=INTEGRATION POINTS, FREQ=1
S,
SDV,
*END STEP
** simple_shear: prescribed engineering shear in the x-y plane
*STEP, NLGEOM=YES, INC=100
*STATIC
0.1, 1.0, 1.0000000000000002e-06, 0.1
*BOUNDARY, OP=NEW
1, 1, 1, 0.0
1, 2, 2, 0.0
1, 3, 3, 0.0
2, 1, 1, 0.0
2, 2, 2, 0.0025
2, 3, 3, 0.0
3, 1, 1, 0.0025
3, 2, 2, 0.0
3, 3, 3, 0.0
4, 1, 1, 0.0
4, 2, 2, 0.0
4, 3, 3, 0.0
*OUTPUT, FIELD, FREQUENCY=1
*ELEMENT OUTPUT, POSITION=INTEGRATION POINTS
S, SDV
*EL PRINT, POSITION=INTEGRATION POINTS, FREQ=1
S,
SDV,
*END STEP
** uniaxial_reversed: reversal of uniaxial to exercise state evolution
*STEP, NLGEOM=YES, INC=100
*STATIC
0.1, 1.0, 1.0000000000000002e-06, 0.1
*BOUNDARY, OP=NEW
1, 1, 1, -0.0
1, 2, 2, -0.0
1, 3, 3, -0.0
2, 1, 1, -0.0025
2, 2, 2, -0.0
2, 3, 3, -0.0
3, 1, 1, -0.0
3, 2, 2, -0.0
3, 3, 3, -0.0
4, 1, 1, -0.0
4, 2, 2, -0.0
4, 3, 3, -0.0
*OUTPUT, FIELD, FREQUENCY=1
*ELEMENT OUTPUT, POSITION=INTEGRATION POINTS
S, SDV
*EL PRINT, POSITION=INTEGRATION POINTS, FREQ=1
S,
SDV,
*END STEP
