*HEADING
single-element verification deck for Material-1
** Generated by umat_oti.abaqus.deck from a verification manifest.
** kinematics: finite; ntens: 3
** material provenance: awhelanUCD__Lemaitre-damage-UMAT-Public/nonLocalLemaitre/axiSymmetricNotchedBar.inp: axiSymmetricNotchedBar.inp *MATERIAL Material-1: 7 constants, *DEPVAR 23 -- a section in axiSymmetricNotchedBar.inp attaches Material-1 to CAX4T; the deck sits in the source's own directory
** geometry: the reference element of this harness, a unit cell at the origin
*NODE
1, 0.0, 0.0
2, 1.0, 0.0
3, 1.0, 1.0
4, 0.0, 1.0
*ELEMENT, TYPE=CPS4, ELSET=ONE
1, 1, 2, 3, 4
*SOLID SECTION, ELSET=ONE, MATERIAL=MATERIAL-1
1.0
*MATERIAL, NAME=MATERIAL-1
*DEPVAR
23,
*USER MATERIAL, CONSTANTS=7
400480.0, 0.3, 345.0, 200.0, 1250000.0, 1.0, 0.6325
** uniaxial: prescribed extension along x, lateral faces free to move only in their own plane
*STEP, NLGEOM=YES, INC=100
*STATIC
0.1, 1.0, 1.0000000000000002e-06, 0.1
*BOUNDARY, OP=NEW
1, 1, 1, 0.0
1, 2, 2, 0.0
2, 1, 1, 0.010000000000000002
2, 2, 2, 0.0
3, 1, 1, 0.010000000000000002
3, 2, 2, 0.0
4, 1, 1, 0.0
4, 2, 2, 0.0
*OUTPUT, FIELD, FREQUENCY=1
*ELEMENT OUTPUT, POSITION=INTEGRATION POINTS
S, SDV
*EL PRINT, POSITION=INTEGRATION POINTS, FREQ=1
S,
SDV,
*END STEP
** simple_shear: prescribed engineering shear in the x-y plane
*STEP, NLGEOM=YES, INC=100
*STATIC
0.1, 1.0, 1.0000000000000002e-06, 0.1
*BOUNDARY, OP=NEW
1, 1, 1, 0.0
1, 2, 2, 0.0
2, 1, 1, 0.0
2, 2, 2, 0.005000000000000001
3, 1, 1, 0.005000000000000001
3, 2, 2, 0.005000000000000001
4, 1, 1, 0.005000000000000001
4, 2, 2, 0.0
*OUTPUT, FIELD, FREQUENCY=1
*ELEMENT OUTPUT, POSITION=INTEGRATION POINTS
S, SDV
*EL PRINT, POSITION=INTEGRATION POINTS, FREQ=1
S,
SDV,
*END STEP
** uniaxial_reversed: reversal of uniaxial to exercise state evolution
*STEP, NLGEOM=YES, INC=100
*STATIC
0.1, 1.0, 1.0000000000000002e-06, 0.1
*BOUNDARY, OP=NEW
1, 1, 1, -0.0
1, 2, 2, -0.0
2, 1, 1, -0.005000000000000001
2, 2, 2, -0.0
3, 1, 1, -0.005000000000000001
3, 2, 2, -0.0
4, 1, 1, -0.0
4, 2, 2, -0.0
*OUTPUT, FIELD, FREQUENCY=1
*ELEMENT OUTPUT, POSITION=INTEGRATION POINTS
S, SDV
*EL PRINT, POSITION=INTEGRATION POINTS, FREQ=1
S,
SDV,
*END STEP
** uniaxial_hold: the strain of uniaxial held for 10 of step time, so that stress change means time dependence
*STEP, NLGEOM=YES, INC=100
*STATIC
2.0, 10.0, 2e-05, 2.0
*BOUNDARY, OP=NEW
1, 1, 1, 0.0
1, 2, 2, 0.0
2, 1, 1, 0.010000000000000002
2, 2, 2, 0.0
3, 1, 1, 0.010000000000000002
3, 2, 2, 0.0
4, 1, 1, 0.0
4, 2, 2, 0.0
*OUTPUT, FIELD, FREQUENCY=1
*ELEMENT OUTPUT, POSITION=INTEGRATION POINTS
S, SDV
*EL PRINT, POSITION=INTEGRATION POINTS, FREQ=1
S,
SDV,
*END STEP
