*HEADING
single-element verification deck for duraMater
** Generated by umat_oti.abaqus.deck from a verification manifest.
** kinematics: finite; ntens: 6
** material provenance: mholla__BMMB24/simulations/input files/a=2MouseDuraMaterLongCut.inp: a=2MouseDuraMaterLongCut.inp *MATERIAL duraMater: 7 constants, *DEPVAR 8 -- a section in a=2MouseDuraMaterLongCut.inp attaches duraMater to C3D4H, R3D3, R3D4; the deck sits in the source's own directory
** geometry: the reference element of this harness, a unit cell at the origin
*NODE
1, 0.0, 0.0, 0.0
2, 1.0, 0.0, 0.0
3, 1.0, 1.0, 0.0
4, 0.0, 1.0, 0.0
5, 0.0, 0.0, 1.0
6, 1.0, 0.0, 1.0
7, 1.0, 1.0, 1.0
8, 0.0, 1.0, 1.0
*ELEMENT, TYPE=C3D8, ELSET=ONE
1, 1, 2, 3, 4, 5, 6, 7, 8
*SOLID SECTION, ELSET=ONE, MATERIAL=DURAMATER
*MATERIAL, NAME=DURAMATER
*DEPVAR
8,
*USER MATERIAL, CONSTANTS=7, UNSYMM
112.7, 1.127, 1.397, 2.0, 1.397, 1.16, 10.0
*INITIAL CONDITIONS, TYPE=SOLUTION, USER
** grow: no strain is prescribed and no load is applied; the step runs for 10 of analysis time so that whatever this law does with the clock is what the element does (this routine declares no time scale of its own; the author's deck runs 10 of step time and that is the history it was written against)
*STEP, NLGEOM=YES, INC=200
*STATIC
0.5, 10.0, 5e-06, 0.5
*BOUNDARY, OP=NEW
1, 1, 1, 0.0
1, 2, 2, 0.0
1, 3, 3, 0.0
2, 2, 2, 0.0
2, 3, 3, 0.0
4, 3, 3, 0.0
*OUTPUT, FIELD, FREQUENCY=1
*ELEMENT OUTPUT, POSITION=INTEGRATION POINTS
S, SDV
*EL PRINT, POSITION=INTEGRATION POINTS, FREQ=1
S,
SDV,
*END STEP
