*HEADING
single-element verification deck for user_mat
** Generated by umat_oti.abaqus.deck from a verification manifest.
** kinematics: finite; ntens: 6
** material provenance: AlexanderJFDR__Hyperelastic_phase_field/umat/twist_umat.inp: twist_umat.inp *MATERIAL user_mat: 2 constants, *DEPVAR 0 -- a section in twist_umat.inp attaches user_mat to C3D8R; the deck's name 'twist_umat.inp' contains the whole of the source's stem 'umat'; the deck sits in the source's own directory
** geometry: the reference element of this harness, a unit cell at the origin
*NODE
1, 0.0, 0.0, 0.0
2, 1.0, 0.0, 0.0
3, 1.0, 1.0, 0.0
4, 0.0, 1.0, 0.0
5, 0.0, 0.0, 1.0
6, 1.0, 0.0, 1.0
7, 1.0, 1.0, 1.0
8, 0.0, 1.0, 1.0
*ELEMENT, TYPE=C3D8, ELSET=ONE
1, 1, 2, 3, 4, 5, 6, 7, 8
*SOLID SECTION, ELSET=ONE, MATERIAL=USER_MAT
*MATERIAL, NAME=USER_MAT
*DEPVAR
1,
*USER MATERIAL, CONSTANTS=2
0.5, 2.5641
** uniaxial: prescribed extension along x, lateral faces free to move only in their own plane
*STEP, NLGEOM=YES, INC=100
*STATIC
0.1, 1.0, 1.0000000000000002e-06, 0.1
*BOUNDARY, OP=NEW
1, 1, 1, 0.0
1, 2, 2, 0.0
1, 3, 3, 0.0
2, 1, 1, 0.010000000000000002
2, 2, 2, 0.0
2, 3, 3, 0.0
3, 1, 1, 0.010000000000000002
3, 2, 2, 0.0
3, 3, 3, 0.0
4, 1, 1, 0.0
4, 2, 2, 0.0
4, 3, 3, 0.0
5, 1, 1, 0.0
5, 2, 2, 0.0
5, 3, 3, 0.0
6, 1, 1, 0.010000000000000002
6, 2, 2, 0.0
6, 3, 3, 0.0
7, 1, 1, 0.010000000000000002
7, 2, 2, 0.0
7, 3, 3, 0.0
8, 1, 1, 0.0
8, 2, 2, 0.0
8, 3, 3, 0.0
*OUTPUT, FIELD, FREQUENCY=1
*ELEMENT OUTPUT, POSITION=INTEGRATION POINTS
S, SDV
*EL PRINT, POSITION=INTEGRATION POINTS, FREQ=1
S,
SDV,
*END STEP
** simple_shear: prescribed engineering shear in the x-y plane
*STEP, NLGEOM=YES, INC=100
*STATIC
0.1, 1.0, 1.0000000000000002e-06, 0.1
*BOUNDARY, OP=NEW
1, 1, 1, 0.0
1, 2, 2, 0.0
1, 3, 3, 0.0
2, 1, 1, 0.0
2, 2, 2, 0.005000000000000001
2, 3, 3, 0.0
3, 1, 1, 0.005000000000000001
3, 2, 2, 0.005000000000000001
3, 3, 3, 0.0
4, 1, 1, 0.005000000000000001
4, 2, 2, 0.0
4, 3, 3, 0.0
5, 1, 1, 0.0
5, 2, 2, 0.0
5, 3, 3, 0.0
6, 1, 1, 0.0
6, 2, 2, 0.005000000000000001
6, 3, 3, 0.0
7, 1, 1, 0.005000000000000001
7, 2, 2, 0.005000000000000001
7, 3, 3, 0.0
8, 1, 1, 0.005000000000000001
8, 2, 2, 0.0
8, 3, 3, 0.0
*OUTPUT, FIELD, FREQUENCY=1
*ELEMENT OUTPUT, POSITION=INTEGRATION POINTS
S, SDV
*EL PRINT, POSITION=INTEGRATION POINTS, FREQ=1
S,
SDV,
*END STEP
** uniaxial_reversed: reversal of uniaxial to exercise state evolution
*STEP, NLGEOM=YES, INC=100
*STATIC
0.1, 1.0, 1.0000000000000002e-06, 0.1
*BOUNDARY, OP=NEW
1, 1, 1, -0.0
1, 2, 2, -0.0
1, 3, 3, -0.0
2, 1, 1, -0.005000000000000001
2, 2, 2, -0.0
2, 3, 3, -0.0
3, 1, 1, -0.005000000000000001
3, 2, 2, -0.0
3, 3, 3, -0.0
4, 1, 1, -0.0
4, 2, 2, -0.0
4, 3, 3, -0.0
5, 1, 1, -0.0
5, 2, 2, -0.0
5, 3, 3, -0.0
6, 1, 1, -0.005000000000000001
6, 2, 2, -0.0
6, 3, 3, -0.0
7, 1, 1, -0.005000000000000001
7, 2, 2, -0.0
7, 3, 3, -0.0
8, 1, 1, -0.0
8, 2, 2, -0.0
8, 3, 3, -0.0
*OUTPUT, FIELD, FREQUENCY=1
*ELEMENT OUTPUT, POSITION=INTEGRATION POINTS
S, SDV
*EL PRINT, POSITION=INTEGRATION POINTS, FREQ=1
S,
SDV,
*END STEP
** uniaxial_hold: the strain of uniaxial held for 10 of step time, so that stress change means time dependence
*STEP, NLGEOM=YES, INC=100
*STATIC
2.0, 10.0, 2e-05, 2.0
*BOUNDARY, OP=NEW
1, 1, 1, 0.0
1, 2, 2, 0.0
1, 3, 3, 0.0
2, 1, 1, 0.010000000000000002
2, 2, 2, 0.0
2, 3, 3, 0.0
3, 1, 1, 0.010000000000000002
3, 2, 2, 0.0
3, 3, 3, 0.0
4, 1, 1, 0.0
4, 2, 2, 0.0
4, 3, 3, 0.0
5, 1, 1, 0.0
5, 2, 2, 0.0
5, 3, 3, 0.0
6, 1, 1, 0.010000000000000002
6, 2, 2, 0.0
6, 3, 3, 0.0
7, 1, 1, 0.010000000000000002
7, 2, 2, 0.0
7, 3, 3, 0.0
8, 1, 1, 0.0
8, 2, 2, 0.0
8, 3, 3, 0.0
*OUTPUT, FIELD, FREQUENCY=1
*ELEMENT OUTPUT, POSITION=INTEGRATION POINTS
S, SDV
*EL PRINT, POSITION=INTEGRATION POINTS, FREQ=1
S,
SDV,
*END STEP
