*HEADING
single-element verification deck for neoHookean
** Generated by umat_oti.abaqus.deck from a verification manifest.
** kinematics: finite; ntens: 6
** material provenance: Jeff97__Programming-Plane-Strain-Plates-through-Growth-Under-Body-Forces/Examples-In-Section-3/Flat/Th002/Beam-PureGrowth.inp: Beam-PureGrowth.inp *MATERIAL neoHookean: 1 constants, *DEPVAR 9 -- a section in Beam-PureGrowth.inp attaches neoHookean to C3D20H; the deck's name 'Beam-PureGrowth.inp' contains the whole of the source's stem 'puregrowth'; the deck sits in the source's own directory
** geometry: element 1537 (C3D20H) of Beam-PureGrowth.inp, reduced to its corner nodes: this routine caches its point's position (READX=COORDS(1), READY=COORDS(2), READZ=COORDS(3), STATEV(1)=COORDS(1), STATEV(2)=COORDS(2), STATEV(3)=COORDS(3), X=COORDS(1), Y=COORDS(2), Z=COORDS(3)) and builds no divisor out of it that this module can evaluate, so one element of the author's own mesh is used and its coordinates are the author's
*NODE
1, 0.0, 0.00999999978, 0.0
2, 0.00260416674, 0.00999999978, 0.0
3, 0.00260416674, 0.0125000002, 0.0
4, 0.0, 0.0125000002, 0.0
5, 0.0, 0.00999999978, 0.00100000005
6, 0.00260416674, 0.00999999978, 0.00100000005
7, 0.00260416674, 0.0125000002, 0.00100000005
8, 0.0, 0.0125000002, 0.00100000005
*ELEMENT, TYPE=C3D8H, ELSET=ONE
1, 1, 2, 3, 4, 5, 6, 7, 8
*SOLID SECTION, ELSET=ONE, MATERIAL=NEOHOOKEAN
*MATERIAL, NAME=NEOHOOKEAN
*DEPVAR
9,
*USER MATERIAL, CONSTANTS=1
1000000.0
** uniaxial: prescribed extension along x, lateral faces free to move only in their own plane
*STEP, NLGEOM=YES, INC=100
*STATIC
0.1, 1.0, 1.0000000000000002e-06, 0.1
*BOUNDARY, OP=NEW
1, 1, 1, 0.0
1, 2, 2, 0.0
1, 3, 3, 0.0
2, 1, 1, 2.6041667400000005e-05
2, 2, 2, 0.0
2, 3, 3, 0.0
3, 1, 1, 2.6041667400000005e-05
3, 2, 2, 0.0
3, 3, 3, 0.0
4, 1, 1, 0.0
4, 2, 2, 0.0
4, 3, 3, 0.0
5, 1, 1, 0.0
5, 2, 2, 0.0
5, 3, 3, 0.0
6, 1, 1, 2.6041667400000005e-05
6, 2, 2, 0.0
6, 3, 3, 0.0
7, 1, 1, 2.6041667400000005e-05
7, 2, 2, 0.0
7, 3, 3, 0.0
8, 1, 1, 0.0
8, 2, 2, 0.0
8, 3, 3, 0.0
*OUTPUT, FIELD, FREQUENCY=1
*ELEMENT OUTPUT, POSITION=INTEGRATION POINTS
S, SDV
*EL PRINT, POSITION=INTEGRATION POINTS, FREQ=1
S,
SDV,
*END STEP
** simple_shear: prescribed engineering shear in the x-y plane
*STEP, NLGEOM=YES, INC=100
*STATIC
0.1, 1.0, 1.0000000000000002e-06, 0.1
*BOUNDARY, OP=NEW
1, 1, 1, 4.999999890000001e-05
1, 2, 2, 0.0
1, 3, 3, 0.0
2, 1, 1, 4.999999890000001e-05
2, 2, 2, 1.3020833700000002e-05
2, 3, 3, 0.0
3, 1, 1, 6.250000100000001e-05
3, 2, 2, 1.3020833700000002e-05
3, 3, 3, 0.0
4, 1, 1, 6.250000100000001e-05
4, 2, 2, 0.0
4, 3, 3, 0.0
5, 1, 1, 4.999999890000001e-05
5, 2, 2, 0.0
5, 3, 3, 0.0
6, 1, 1, 4.999999890000001e-05
6, 2, 2, 1.3020833700000002e-05
6, 3, 3, 0.0
7, 1, 1, 6.250000100000001e-05
7, 2, 2, 1.3020833700000002e-05
7, 3, 3, 0.0
8, 1, 1, 6.250000100000001e-05
8, 2, 2, 0.0
8, 3, 3, 0.0
*OUTPUT, FIELD, FREQUENCY=1
*ELEMENT OUTPUT, POSITION=INTEGRATION POINTS
S, SDV
*EL PRINT, POSITION=INTEGRATION POINTS, FREQ=1
S,
SDV,
*END STEP
** uniaxial_reversed: reversal of uniaxial to exercise state evolution
*STEP, NLGEOM=YES, INC=100
*STATIC
0.1, 1.0, 1.0000000000000002e-06, 0.1
*BOUNDARY, OP=NEW
1, 1, 1, -0.0
1, 2, 2, -0.0
1, 3, 3, -0.0
2, 1, 1, -1.3020833700000002e-05
2, 2, 2, -0.0
2, 3, 3, -0.0
3, 1, 1, -1.3020833700000002e-05
3, 2, 2, -0.0
3, 3, 3, -0.0
4, 1, 1, -0.0
4, 2, 2, -0.0
4, 3, 3, -0.0
5, 1, 1, -0.0
5, 2, 2, -0.0
5, 3, 3, -0.0
6, 1, 1, -1.3020833700000002e-05
6, 2, 2, -0.0
6, 3, 3, -0.0
7, 1, 1, -1.3020833700000002e-05
7, 2, 2, -0.0
7, 3, 3, -0.0
8, 1, 1, -0.0
8, 2, 2, -0.0
8, 3, 3, -0.0
*OUTPUT, FIELD, FREQUENCY=1
*ELEMENT OUTPUT, POSITION=INTEGRATION POINTS
S, SDV
*EL PRINT, POSITION=INTEGRATION POINTS, FREQ=1
S,
SDV,
*END STEP
** uniaxial_hold: the strain of uniaxial held for 10 of step time, so that stress change means time dependence
*STEP, NLGEOM=YES, INC=100
*STATIC
2.0, 10.0, 2e-05, 2.0
*BOUNDARY, OP=NEW
1, 1, 1, 0.0
1, 2, 2, 0.0
1, 3, 3, 0.0
2, 1, 1, 2.6041667400000005e-05
2, 2, 2, 0.0
2, 3, 3, 0.0
3, 1, 1, 2.6041667400000005e-05
3, 2, 2, 0.0
3, 3, 3, 0.0
4, 1, 1, 0.0
4, 2, 2, 0.0
4, 3, 3, 0.0
5, 1, 1, 0.0
5, 2, 2, 0.0
5, 3, 3, 0.0
6, 1, 1, 2.6041667400000005e-05
6, 2, 2, 0.0
6, 3, 3, 0.0
7, 1, 1, 2.6041667400000005e-05
7, 2, 2, 0.0
7, 3, 3, 0.0
8, 1, 1, 0.0
8, 2, 2, 0.0
8, 3, 3, 0.0
*OUTPUT, FIELD, FREQUENCY=1
*ELEMENT OUTPUT, POSITION=INTEGRATION POINTS
S, SDV
*EL PRINT, POSITION=INTEGRATION POINTS, FREQ=1
S,
SDV,
*END STEP
